(set-logic QF_S)
(declare-fun var_0xINPUT_126279 () String)
(assert (and (= (len var_0xINPUT_126279) 0) (= (len var_0xINPUT_126279) 0) (not (= var_0xINPUT_126279 "CQALcCP5TB"))))
(check-sat var_0xINPUT_126279)